&DOS
    prefix  = 'TiSe2'
    DeltaE = 0.001,
    fildos = 'TiSe2.dos.dat'
    outdir = './tmp/'
/
