&control
    title = 'Bulk Silicon',
    prefix = 'bulk_Si_exmpl2_BandUP',
    calculation = 'scf',
    pseudo_dir = '../../pseudo'
    outdir = './outdir'
    restart_mode = 'from_scratch',
    disk_io = 'low'
    wf_collect = .TRUE.,
/
&system
    ibrav =  0,
    nat =  24,
    ntyp = 2,
    ecutwfc = 70
    ecutrho = 800
    degauss = 0.01
    smearing = 'marzari-vanderbilt'
    occupations = 'smearing'
    nbnd = 200
/
&electrons
  conv_thr = 1.0d-10
  mixing_beta = 0.7
/
ATOMIC_SPECIES
    Ti 47.867  Ti.pz-spn-rrkjus_psl.1.0.0.UPF
    Se 78.971  Se.pz-n-rrkjus_psl.0.2.UPF
    

ATOMIC_POSITIONS (crystal)
Ti       0.000000000   0.000000000  -0.000000000
Ti       0.500000000   0.500000000  -0.000000000
Ti       0.000000000   0.500000000  -0.000000000
Ti       0.500000000   0.000000000   0.000000000
Ti       0.000000000  -0.000000000   0.500000000
Ti       0.500000000   0.500000000   0.500000000
Ti       0.000000000   0.500000000   0.500000000
Ti       0.500000000   0.000000000   0.500000000
Se       0.166936217   0.333063967   0.125539823
Se       0.333063967   0.166936217  -0.125539823
Se       0.166936182   0.833063817   0.125539769
Se       0.333063858   0.666936141  -0.125539876
Se       0.833063817   0.166936182  -0.125539769
Se       0.666936141   0.333063858   0.125539876
Se       0.666936032   0.833063782   0.125539823
Se       0.833063782   0.666936032  -0.125539823
Se       0.166936045   0.333063887   0.625539818
Se       0.333063887   0.166936045  -0.625539818
Se       0.166936185   0.833063814   0.625539712
Se       0.333063764   0.666936235  -0.625539874
Se       0.833063814   0.166936185  -0.625539712
Se       0.666936235   0.333063764   0.625539874
Se       0.666936112   0.833063954   0.625539818
Se       0.833063954   0.666936112  -0.625539818

K_POINTS (automatic)
12 12 12 0 0 0

CELL_PARAMETERS (angstrom)
   6.839728000  -1.827989000   0.0544880000
  -1.827989000   6.839728000  -0.0544880000
  -0.092463108   0.092463108   12.013558258
