&control   
    calculation = 'relax',
    restart_mode = 'from_scratch'
    prefix = 'TiSe2',
    outdir = './tmp/'
    pseudo_dir = './pseudo/'
    forc_conv_thr = 1.0d-8
    etot_conv_thr = 1.0d-8
    tstress = .true.
    tprnfor = .true.
 /
 &system
    ibrav =  0,
    nat =  4,
    ntyp = 3,
    ecutwfc = 70
    ecutrho = 800
    degauss = 0.01
    smearing = 'marzari-vanderbilt'
    occupations = 'smearing'

 /
 &electrons
    mixing_beta = 0.7
    conv_thr = 1.0d-10

 /
 &IONS
  ion_dynamics = 'bfgs',
 /
ATOMIC_SPECIES
Ti 47.867  Ti.upf
Se 78.971  Se.upf
Li 6.940   Li0.11He_nc3b.UPF

ATOMIC_POSITIONS (crystal)
Ti      -0.000000000  -0.000000000  -0.000000000
Se       0.333333333   0.666666666   0.255030000
Se       0.666666666   0.333333333  -0.255030000
Li       0.000000000   0.000000000   0.500000000

K_POINTS (automatic)
16 16 16 0 0 0

CELL_PARAMETERS (angstrom)
   3.425660658  -0.915543695   0.025434397
  -0.915543695   3.425660658  -0.025434397
  -0.036632491   0.036632491   6.039777916
