Kpoints along some high symmetry directions on the pcbz of Si (diamond structure)
300 300 300
Line-mode
Reciprocal
0.000 0.000 0.000   1  ! G
0.500 0.000 0.000   1  ! M

0.500 0.000 0.000   1  ! M
0.333 0.333 0.000   1  ! K

0.333 0.333 0.000   1  ! K
0.000 0.000 0.000   1  ! G

0.000 0.000 0.000   1  ! G
0.000 0.000 0.500   1  ! A

0.000 0.000 0.500   1  ! A
0.500 0.000 0.500   1  ! L

0.500 0.000 0.500   1  ! L
0.333 0.333 0.500   1  ! H

0.333 0.333 0.500   1  ! H
0.000 0.000 0.500   1  ! A
