&control
    calculation = 'nscf',
    restart_mode = 'from_scratch'
    prefix = 'TiSe2',
    verbosity = 'high'
    outdir = './'
    pseudo_dir = './pseudo/'
    forc_conv_thr = 1.0d-8
    etot_conv_thr = 1.0d-8
 /
 &system
    ibrav =  0,
    nat =  3,
    ntyp = 2,
    ecutwfc = 70
    ecutrho = 800
    degauss = 0.01
    smearing = 'marzari-vanderbilt'
    occupations =  'smearing'                                                                
 /
 &electrons
    mixing_beta = 0.7
    conv_thr = 1.0d-10
 /
ATOMIC_SPECIES
Ti 47.867  Ti.upf
Se 78.971  Se.upf

ATOMIC_POSITIONS (crystal)
Ti      -0.000000000  -0.000000000  -0.000000000
Se       0.333899797   0.666100202   0.250208591
Se       0.666100202   0.333899797  -0.250208591


K_POINTS crystal
1728
  0.00000000  0.00000000  0.00000000  5.787037e-04 
  0.00000000  0.00000000  0.08333333  5.787037e-04 
  0.00000000  0.00000000  0.16666667  5.787037e-04 
  0.00000000  0.00000000  0.25000000  5.787037e-04 
  0.00000000  0.00000000  0.33333333  5.787037e-04 
  0.00000000  0.00000000  0.41666667  5.787037e-04 
  0.00000000  0.00000000  0.50000000  5.787037e-04 
  0.00000000  0.00000000  0.58333333  5.787037e-04 
  0.00000000  0.00000000  0.66666667  5.787037e-04 
  0.00000000  0.00000000  0.75000000  5.787037e-04 
  0.00000000  0.00000000  0.83333333  5.787037e-04 
  0.00000000  0.00000000  0.91666667  5.787037e-04 
  0.00000000  0.08333333  0.00000000  5.787037e-04 
  0.00000000  0.08333333  0.08333333  5.787037e-04 
  0.00000000  0.08333333  0.16666667  5.787037e-04 
  0.00000000  0.08333333  0.25000000  5.787037e-04 
  0.00000000  0.08333333  0.33333333  5.787037e-04 
  0.00000000  0.08333333  0.41666667  5.787037e-04 
  0.00000000  0.08333333  0.50000000  5.787037e-04 
  0.00000000  0.08333333  0.58333333  5.787037e-04 
  0.00000000  0.08333333  0.66666667  5.787037e-04 
  0.00000000  0.08333333  0.75000000  5.787037e-04 
  0.00000000  0.08333333  0.83333333  5.787037e-04 
  0.00000000  0.08333333  0.91666667  5.787037e-04 
  0.00000000  0.16666667  0.00000000  5.787037e-04 
  0.00000000  0.16666667  0.08333333  5.787037e-04 
  0.00000000  0.16666667  0.16666667  5.787037e-04 
  0.00000000  0.16666667  0.25000000  5.787037e-04 
  0.00000000  0.16666667  0.33333333  5.787037e-04 
  0.00000000  0.16666667  0.41666667  5.787037e-04 
  0.00000000  0.16666667  0.50000000  5.787037e-04 
  0.00000000  0.16666667  0.58333333  5.787037e-04 
  0.00000000  0.16666667  0.66666667  5.787037e-04 
  0.00000000  0.16666667  0.75000000  5.787037e-04 
  0.00000000  0.16666667  0.83333333  5.787037e-04 
  0.00000000  0.16666667  0.91666667  5.787037e-04 
  0.00000000  0.25000000  0.00000000  5.787037e-04 
  0.00000000  0.25000000  0.08333333  5.787037e-04 
  0.00000000  0.25000000  0.16666667  5.787037e-04 
  0.00000000  0.25000000  0.25000000  5.787037e-04 
  0.00000000  0.25000000  0.33333333  5.787037e-04 
  0.00000000  0.25000000  0.41666667  5.787037e-04 
  0.00000000  0.25000000  0.50000000  5.787037e-04 
  0.00000000  0.25000000  0.58333333  5.787037e-04 
  0.00000000  0.25000000  0.66666667  5.787037e-04 
  0.00000000  0.25000000  0.75000000  5.787037e-04 
  0.00000000  0.25000000  0.83333333  5.787037e-04 
  0.00000000  0.25000000  0.91666667  5.787037e-04 
  0.00000000  0.33333333  0.00000000  5.787037e-04 
  0.00000000  0.33333333  0.08333333  5.787037e-04 
  0.00000000  0.33333333  0.16666667  5.787037e-04 
  0.00000000  0.33333333  0.25000000  5.787037e-04 
  0.00000000  0.33333333  0.33333333  5.787037e-04 
  0.00000000  0.33333333  0.41666667  5.787037e-04 
  0.00000000  0.33333333  0.50000000  5.787037e-04 
  0.00000000  0.33333333  0.58333333  5.787037e-04 
  0.00000000  0.33333333  0.66666667  5.787037e-04 
  0.00000000  0.33333333  0.75000000  5.787037e-04 
  0.00000000  0.33333333  0.83333333  5.787037e-04 
  0.00000000  0.33333333  0.91666667  5.787037e-04 
  0.00000000  0.41666667  0.00000000  5.787037e-04 
  0.00000000  0.41666667  0.08333333  5.787037e-04 
  0.00000000  0.41666667  0.16666667  5.787037e-04 
  0.00000000  0.41666667  0.25000000  5.787037e-04 
  0.00000000  0.41666667  0.33333333  5.787037e-04 
  0.00000000  0.41666667  0.41666667  5.787037e-04 
  0.00000000  0.41666667  0.50000000  5.787037e-04 
  0.00000000  0.41666667  0.58333333  5.787037e-04 
  0.00000000  0.41666667  0.66666667  5.787037e-04 
  0.00000000  0.41666667  0.75000000  5.787037e-04 
  0.00000000  0.41666667  0.83333333  5.787037e-04 
  0.00000000  0.41666667  0.91666667  5.787037e-04 
  0.00000000  0.50000000  0.00000000  5.787037e-04 
  0.00000000  0.50000000  0.08333333  5.787037e-04 
  0.00000000  0.50000000  0.16666667  5.787037e-04 
  0.00000000  0.50000000  0.25000000  5.787037e-04 
  0.00000000  0.50000000  0.33333333  5.787037e-04 
  0.00000000  0.50000000  0.41666667  5.787037e-04 
  0.00000000  0.50000000  0.50000000  5.787037e-04 
  0.00000000  0.50000000  0.58333333  5.787037e-04 
  0.00000000  0.50000000  0.66666667  5.787037e-04 
  0.00000000  0.50000000  0.75000000  5.787037e-04 
  0.00000000  0.50000000  0.83333333  5.787037e-04 
  0.00000000  0.50000000  0.91666667  5.787037e-04 
  0.00000000  0.58333333  0.00000000  5.787037e-04 
  0.00000000  0.58333333  0.08333333  5.787037e-04 
  0.00000000  0.58333333  0.16666667  5.787037e-04 
  0.00000000  0.58333333  0.25000000  5.787037e-04 
  0.00000000  0.58333333  0.33333333  5.787037e-04 
  0.00000000  0.58333333  0.41666667  5.787037e-04 
  0.00000000  0.58333333  0.50000000  5.787037e-04 
  0.00000000  0.58333333  0.58333333  5.787037e-04 
  0.00000000  0.58333333  0.66666667  5.787037e-04 
  0.00000000  0.58333333  0.75000000  5.787037e-04 
  0.00000000  0.58333333  0.83333333  5.787037e-04 
  0.00000000  0.58333333  0.91666667  5.787037e-04 
  0.00000000  0.66666667  0.00000000  5.787037e-04 
  0.00000000  0.66666667  0.08333333  5.787037e-04 
  0.00000000  0.66666667  0.16666667  5.787037e-04 
  0.00000000  0.66666667  0.25000000  5.787037e-04 
  0.00000000  0.66666667  0.33333333  5.787037e-04 
  0.00000000  0.66666667  0.41666667  5.787037e-04 
  0.00000000  0.66666667  0.50000000  5.787037e-04 
  0.00000000  0.66666667  0.58333333  5.787037e-04 
  0.00000000  0.66666667  0.66666667  5.787037e-04 
  0.00000000  0.66666667  0.75000000  5.787037e-04 
  0.00000000  0.66666667  0.83333333  5.787037e-04 
  0.00000000  0.66666667  0.91666667  5.787037e-04 
  0.00000000  0.75000000  0.00000000  5.787037e-04 
  0.00000000  0.75000000  0.08333333  5.787037e-04 
  0.00000000  0.75000000  0.16666667  5.787037e-04 
  0.00000000  0.75000000  0.25000000  5.787037e-04 
  0.00000000  0.75000000  0.33333333  5.787037e-04 
  0.00000000  0.75000000  0.41666667  5.787037e-04 
  0.00000000  0.75000000  0.50000000  5.787037e-04 
  0.00000000  0.75000000  0.58333333  5.787037e-04 
  0.00000000  0.75000000  0.66666667  5.787037e-04 
  0.00000000  0.75000000  0.75000000  5.787037e-04 
  0.00000000  0.75000000  0.83333333  5.787037e-04 
  0.00000000  0.75000000  0.91666667  5.787037e-04 
  0.00000000  0.83333333  0.00000000  5.787037e-04 
  0.00000000  0.83333333  0.08333333  5.787037e-04 
  0.00000000  0.83333333  0.16666667  5.787037e-04 
  0.00000000  0.83333333  0.25000000  5.787037e-04 
  0.00000000  0.83333333  0.33333333  5.787037e-04 
  0.00000000  0.83333333  0.41666667  5.787037e-04 
  0.00000000  0.83333333  0.50000000  5.787037e-04 
  0.00000000  0.83333333  0.58333333  5.787037e-04 
  0.00000000  0.83333333  0.66666667  5.787037e-04 
  0.00000000  0.83333333  0.75000000  5.787037e-04 
  0.00000000  0.83333333  0.83333333  5.787037e-04 
  0.00000000  0.83333333  0.91666667  5.787037e-04 
  0.00000000  0.91666667  0.00000000  5.787037e-04 
  0.00000000  0.91666667  0.08333333  5.787037e-04 
  0.00000000  0.91666667  0.16666667  5.787037e-04 
  0.00000000  0.91666667  0.25000000  5.787037e-04 
  0.00000000  0.91666667  0.33333333  5.787037e-04 
  0.00000000  0.91666667  0.41666667  5.787037e-04 
  0.00000000  0.91666667  0.50000000  5.787037e-04 
  0.00000000  0.91666667  0.58333333  5.787037e-04 
  0.00000000  0.91666667  0.66666667  5.787037e-04 
  0.00000000  0.91666667  0.75000000  5.787037e-04 
  0.00000000  0.91666667  0.83333333  5.787037e-04 
  0.00000000  0.91666667  0.91666667  5.787037e-04 
  0.08333333  0.00000000  0.00000000  5.787037e-04 
  0.08333333  0.00000000  0.08333333  5.787037e-04 
  0.08333333  0.00000000  0.16666667  5.787037e-04 
  0.08333333  0.00000000  0.25000000  5.787037e-04 
  0.08333333  0.00000000  0.33333333  5.787037e-04 
  0.08333333  0.00000000  0.41666667  5.787037e-04 
  0.08333333  0.00000000  0.50000000  5.787037e-04 
  0.08333333  0.00000000  0.58333333  5.787037e-04 
  0.08333333  0.00000000  0.66666667  5.787037e-04 
  0.08333333  0.00000000  0.75000000  5.787037e-04 
  0.08333333  0.00000000  0.83333333  5.787037e-04 
  0.08333333  0.00000000  0.91666667  5.787037e-04 
  0.08333333  0.08333333  0.00000000  5.787037e-04 
  0.08333333  0.08333333  0.08333333  5.787037e-04 
  0.08333333  0.08333333  0.16666667  5.787037e-04 
  0.08333333  0.08333333  0.25000000  5.787037e-04 
  0.08333333  0.08333333  0.33333333  5.787037e-04 
  0.08333333  0.08333333  0.41666667  5.787037e-04 
  0.08333333  0.08333333  0.50000000  5.787037e-04 
  0.08333333  0.08333333  0.58333333  5.787037e-04 
  0.08333333  0.08333333  0.66666667  5.787037e-04 
  0.08333333  0.08333333  0.75000000  5.787037e-04 
  0.08333333  0.08333333  0.83333333  5.787037e-04 
  0.08333333  0.08333333  0.91666667  5.787037e-04 
  0.08333333  0.16666667  0.00000000  5.787037e-04 
  0.08333333  0.16666667  0.08333333  5.787037e-04 
  0.08333333  0.16666667  0.16666667  5.787037e-04 
  0.08333333  0.16666667  0.25000000  5.787037e-04 
  0.08333333  0.16666667  0.33333333  5.787037e-04 
  0.08333333  0.16666667  0.41666667  5.787037e-04 
  0.08333333  0.16666667  0.50000000  5.787037e-04 
  0.08333333  0.16666667  0.58333333  5.787037e-04 
  0.08333333  0.16666667  0.66666667  5.787037e-04 
  0.08333333  0.16666667  0.75000000  5.787037e-04 
  0.08333333  0.16666667  0.83333333  5.787037e-04 
  0.08333333  0.16666667  0.91666667  5.787037e-04 
  0.08333333  0.25000000  0.00000000  5.787037e-04 
  0.08333333  0.25000000  0.08333333  5.787037e-04 
  0.08333333  0.25000000  0.16666667  5.787037e-04 
  0.08333333  0.25000000  0.25000000  5.787037e-04 
  0.08333333  0.25000000  0.33333333  5.787037e-04 
  0.08333333  0.25000000  0.41666667  5.787037e-04 
  0.08333333  0.25000000  0.50000000  5.787037e-04 
  0.08333333  0.25000000  0.58333333  5.787037e-04 
  0.08333333  0.25000000  0.66666667  5.787037e-04 
  0.08333333  0.25000000  0.75000000  5.787037e-04 
  0.08333333  0.25000000  0.83333333  5.787037e-04 
  0.08333333  0.25000000  0.91666667  5.787037e-04 
  0.08333333  0.33333333  0.00000000  5.787037e-04 
  0.08333333  0.33333333  0.08333333  5.787037e-04 
  0.08333333  0.33333333  0.16666667  5.787037e-04 
  0.08333333  0.33333333  0.25000000  5.787037e-04 
  0.08333333  0.33333333  0.33333333  5.787037e-04 
  0.08333333  0.33333333  0.41666667  5.787037e-04 
  0.08333333  0.33333333  0.50000000  5.787037e-04 
  0.08333333  0.33333333  0.58333333  5.787037e-04 
  0.08333333  0.33333333  0.66666667  5.787037e-04 
  0.08333333  0.33333333  0.75000000  5.787037e-04 
  0.08333333  0.33333333  0.83333333  5.787037e-04 
  0.08333333  0.33333333  0.91666667  5.787037e-04 
  0.08333333  0.41666667  0.00000000  5.787037e-04 
  0.08333333  0.41666667  0.08333333  5.787037e-04 
  0.08333333  0.41666667  0.16666667  5.787037e-04 
  0.08333333  0.41666667  0.25000000  5.787037e-04 
  0.08333333  0.41666667  0.33333333  5.787037e-04 
  0.08333333  0.41666667  0.41666667  5.787037e-04 
  0.08333333  0.41666667  0.50000000  5.787037e-04 
  0.08333333  0.41666667  0.58333333  5.787037e-04 
  0.08333333  0.41666667  0.66666667  5.787037e-04 
  0.08333333  0.41666667  0.75000000  5.787037e-04 
  0.08333333  0.41666667  0.83333333  5.787037e-04 
  0.08333333  0.41666667  0.91666667  5.787037e-04 
  0.08333333  0.50000000  0.00000000  5.787037e-04 
  0.08333333  0.50000000  0.08333333  5.787037e-04 
  0.08333333  0.50000000  0.16666667  5.787037e-04 
  0.08333333  0.50000000  0.25000000  5.787037e-04 
  0.08333333  0.50000000  0.33333333  5.787037e-04 
  0.08333333  0.50000000  0.41666667  5.787037e-04 
  0.08333333  0.50000000  0.50000000  5.787037e-04 
  0.08333333  0.50000000  0.58333333  5.787037e-04 
  0.08333333  0.50000000  0.66666667  5.787037e-04 
  0.08333333  0.50000000  0.75000000  5.787037e-04 
  0.08333333  0.50000000  0.83333333  5.787037e-04 
  0.08333333  0.50000000  0.91666667  5.787037e-04 
  0.08333333  0.58333333  0.00000000  5.787037e-04 
  0.08333333  0.58333333  0.08333333  5.787037e-04 
  0.08333333  0.58333333  0.16666667  5.787037e-04 
  0.08333333  0.58333333  0.25000000  5.787037e-04 
  0.08333333  0.58333333  0.33333333  5.787037e-04 
  0.08333333  0.58333333  0.41666667  5.787037e-04 
  0.08333333  0.58333333  0.50000000  5.787037e-04 
  0.08333333  0.58333333  0.58333333  5.787037e-04 
  0.08333333  0.58333333  0.66666667  5.787037e-04 
  0.08333333  0.58333333  0.75000000  5.787037e-04 
  0.08333333  0.58333333  0.83333333  5.787037e-04 
  0.08333333  0.58333333  0.91666667  5.787037e-04 
  0.08333333  0.66666667  0.00000000  5.787037e-04 
  0.08333333  0.66666667  0.08333333  5.787037e-04 
  0.08333333  0.66666667  0.16666667  5.787037e-04 
  0.08333333  0.66666667  0.25000000  5.787037e-04 
  0.08333333  0.66666667  0.33333333  5.787037e-04 
  0.08333333  0.66666667  0.41666667  5.787037e-04 
  0.08333333  0.66666667  0.50000000  5.787037e-04 
  0.08333333  0.66666667  0.58333333  5.787037e-04 
  0.08333333  0.66666667  0.66666667  5.787037e-04 
  0.08333333  0.66666667  0.75000000  5.787037e-04 
  0.08333333  0.66666667  0.83333333  5.787037e-04 
  0.08333333  0.66666667  0.91666667  5.787037e-04 
  0.08333333  0.75000000  0.00000000  5.787037e-04 
  0.08333333  0.75000000  0.08333333  5.787037e-04 
  0.08333333  0.75000000  0.16666667  5.787037e-04 
  0.08333333  0.75000000  0.25000000  5.787037e-04 
  0.08333333  0.75000000  0.33333333  5.787037e-04 
  0.08333333  0.75000000  0.41666667  5.787037e-04 
  0.08333333  0.75000000  0.50000000  5.787037e-04 
  0.08333333  0.75000000  0.58333333  5.787037e-04 
  0.08333333  0.75000000  0.66666667  5.787037e-04 
  0.08333333  0.75000000  0.75000000  5.787037e-04 
  0.08333333  0.75000000  0.83333333  5.787037e-04 
  0.08333333  0.75000000  0.91666667  5.787037e-04 
  0.08333333  0.83333333  0.00000000  5.787037e-04 
  0.08333333  0.83333333  0.08333333  5.787037e-04 
  0.08333333  0.83333333  0.16666667  5.787037e-04 
  0.08333333  0.83333333  0.25000000  5.787037e-04 
  0.08333333  0.83333333  0.33333333  5.787037e-04 
  0.08333333  0.83333333  0.41666667  5.787037e-04 
  0.08333333  0.83333333  0.50000000  5.787037e-04 
  0.08333333  0.83333333  0.58333333  5.787037e-04 
  0.08333333  0.83333333  0.66666667  5.787037e-04 
  0.08333333  0.83333333  0.75000000  5.787037e-04 
  0.08333333  0.83333333  0.83333333  5.787037e-04 
  0.08333333  0.83333333  0.91666667  5.787037e-04 
  0.08333333  0.91666667  0.00000000  5.787037e-04 
  0.08333333  0.91666667  0.08333333  5.787037e-04 
  0.08333333  0.91666667  0.16666667  5.787037e-04 
  0.08333333  0.91666667  0.25000000  5.787037e-04 
  0.08333333  0.91666667  0.33333333  5.787037e-04 
  0.08333333  0.91666667  0.41666667  5.787037e-04 
  0.08333333  0.91666667  0.50000000  5.787037e-04 
  0.08333333  0.91666667  0.58333333  5.787037e-04 
  0.08333333  0.91666667  0.66666667  5.787037e-04 
  0.08333333  0.91666667  0.75000000  5.787037e-04 
  0.08333333  0.91666667  0.83333333  5.787037e-04 
  0.08333333  0.91666667  0.91666667  5.787037e-04 
  0.16666667  0.00000000  0.00000000  5.787037e-04 
  0.16666667  0.00000000  0.08333333  5.787037e-04 
  0.16666667  0.00000000  0.16666667  5.787037e-04 
  0.16666667  0.00000000  0.25000000  5.787037e-04 
  0.16666667  0.00000000  0.33333333  5.787037e-04 
  0.16666667  0.00000000  0.41666667  5.787037e-04 
  0.16666667  0.00000000  0.50000000  5.787037e-04 
  0.16666667  0.00000000  0.58333333  5.787037e-04 
  0.16666667  0.00000000  0.66666667  5.787037e-04 
  0.16666667  0.00000000  0.75000000  5.787037e-04 
  0.16666667  0.00000000  0.83333333  5.787037e-04 
  0.16666667  0.00000000  0.91666667  5.787037e-04 
  0.16666667  0.08333333  0.00000000  5.787037e-04 
  0.16666667  0.08333333  0.08333333  5.787037e-04 
  0.16666667  0.08333333  0.16666667  5.787037e-04 
  0.16666667  0.08333333  0.25000000  5.787037e-04 
  0.16666667  0.08333333  0.33333333  5.787037e-04 
  0.16666667  0.08333333  0.41666667  5.787037e-04 
  0.16666667  0.08333333  0.50000000  5.787037e-04 
  0.16666667  0.08333333  0.58333333  5.787037e-04 
  0.16666667  0.08333333  0.66666667  5.787037e-04 
  0.16666667  0.08333333  0.75000000  5.787037e-04 
  0.16666667  0.08333333  0.83333333  5.787037e-04 
  0.16666667  0.08333333  0.91666667  5.787037e-04 
  0.16666667  0.16666667  0.00000000  5.787037e-04 
  0.16666667  0.16666667  0.08333333  5.787037e-04 
  0.16666667  0.16666667  0.16666667  5.787037e-04 
  0.16666667  0.16666667  0.25000000  5.787037e-04 
  0.16666667  0.16666667  0.33333333  5.787037e-04 
  0.16666667  0.16666667  0.41666667  5.787037e-04 
  0.16666667  0.16666667  0.50000000  5.787037e-04 
  0.16666667  0.16666667  0.58333333  5.787037e-04 
  0.16666667  0.16666667  0.66666667  5.787037e-04 
  0.16666667  0.16666667  0.75000000  5.787037e-04 
  0.16666667  0.16666667  0.83333333  5.787037e-04 
  0.16666667  0.16666667  0.91666667  5.787037e-04 
  0.16666667  0.25000000  0.00000000  5.787037e-04 
  0.16666667  0.25000000  0.08333333  5.787037e-04 
  0.16666667  0.25000000  0.16666667  5.787037e-04 
  0.16666667  0.25000000  0.25000000  5.787037e-04 
  0.16666667  0.25000000  0.33333333  5.787037e-04 
  0.16666667  0.25000000  0.41666667  5.787037e-04 
  0.16666667  0.25000000  0.50000000  5.787037e-04 
  0.16666667  0.25000000  0.58333333  5.787037e-04 
  0.16666667  0.25000000  0.66666667  5.787037e-04 
  0.16666667  0.25000000  0.75000000  5.787037e-04 
  0.16666667  0.25000000  0.83333333  5.787037e-04 
  0.16666667  0.25000000  0.91666667  5.787037e-04 
  0.16666667  0.33333333  0.00000000  5.787037e-04 
  0.16666667  0.33333333  0.08333333  5.787037e-04 
  0.16666667  0.33333333  0.16666667  5.787037e-04 
  0.16666667  0.33333333  0.25000000  5.787037e-04 
  0.16666667  0.33333333  0.33333333  5.787037e-04 
  0.16666667  0.33333333  0.41666667  5.787037e-04 
  0.16666667  0.33333333  0.50000000  5.787037e-04 
  0.16666667  0.33333333  0.58333333  5.787037e-04 
  0.16666667  0.33333333  0.66666667  5.787037e-04 
  0.16666667  0.33333333  0.75000000  5.787037e-04 
  0.16666667  0.33333333  0.83333333  5.787037e-04 
  0.16666667  0.33333333  0.91666667  5.787037e-04 
  0.16666667  0.41666667  0.00000000  5.787037e-04 
  0.16666667  0.41666667  0.08333333  5.787037e-04 
  0.16666667  0.41666667  0.16666667  5.787037e-04 
  0.16666667  0.41666667  0.25000000  5.787037e-04 
  0.16666667  0.41666667  0.33333333  5.787037e-04 
  0.16666667  0.41666667  0.41666667  5.787037e-04 
  0.16666667  0.41666667  0.50000000  5.787037e-04 
  0.16666667  0.41666667  0.58333333  5.787037e-04 
  0.16666667  0.41666667  0.66666667  5.787037e-04 
  0.16666667  0.41666667  0.75000000  5.787037e-04 
  0.16666667  0.41666667  0.83333333  5.787037e-04 
  0.16666667  0.41666667  0.91666667  5.787037e-04 
  0.16666667  0.50000000  0.00000000  5.787037e-04 
  0.16666667  0.50000000  0.08333333  5.787037e-04 
  0.16666667  0.50000000  0.16666667  5.787037e-04 
  0.16666667  0.50000000  0.25000000  5.787037e-04 
  0.16666667  0.50000000  0.33333333  5.787037e-04 
  0.16666667  0.50000000  0.41666667  5.787037e-04 
  0.16666667  0.50000000  0.50000000  5.787037e-04 
  0.16666667  0.50000000  0.58333333  5.787037e-04 
  0.16666667  0.50000000  0.66666667  5.787037e-04 
  0.16666667  0.50000000  0.75000000  5.787037e-04 
  0.16666667  0.50000000  0.83333333  5.787037e-04 
  0.16666667  0.50000000  0.91666667  5.787037e-04 
  0.16666667  0.58333333  0.00000000  5.787037e-04 
  0.16666667  0.58333333  0.08333333  5.787037e-04 
  0.16666667  0.58333333  0.16666667  5.787037e-04 
  0.16666667  0.58333333  0.25000000  5.787037e-04 
  0.16666667  0.58333333  0.33333333  5.787037e-04 
  0.16666667  0.58333333  0.41666667  5.787037e-04 
  0.16666667  0.58333333  0.50000000  5.787037e-04 
  0.16666667  0.58333333  0.58333333  5.787037e-04 
  0.16666667  0.58333333  0.66666667  5.787037e-04 
  0.16666667  0.58333333  0.75000000  5.787037e-04 
  0.16666667  0.58333333  0.83333333  5.787037e-04 
  0.16666667  0.58333333  0.91666667  5.787037e-04 
  0.16666667  0.66666667  0.00000000  5.787037e-04 
  0.16666667  0.66666667  0.08333333  5.787037e-04 
  0.16666667  0.66666667  0.16666667  5.787037e-04 
  0.16666667  0.66666667  0.25000000  5.787037e-04 
  0.16666667  0.66666667  0.33333333  5.787037e-04 
  0.16666667  0.66666667  0.41666667  5.787037e-04 
  0.16666667  0.66666667  0.50000000  5.787037e-04 
  0.16666667  0.66666667  0.58333333  5.787037e-04 
  0.16666667  0.66666667  0.66666667  5.787037e-04 
  0.16666667  0.66666667  0.75000000  5.787037e-04 
  0.16666667  0.66666667  0.83333333  5.787037e-04 
  0.16666667  0.66666667  0.91666667  5.787037e-04 
  0.16666667  0.75000000  0.00000000  5.787037e-04 
  0.16666667  0.75000000  0.08333333  5.787037e-04 
  0.16666667  0.75000000  0.16666667  5.787037e-04 
  0.16666667  0.75000000  0.25000000  5.787037e-04 
  0.16666667  0.75000000  0.33333333  5.787037e-04 
  0.16666667  0.75000000  0.41666667  5.787037e-04 
  0.16666667  0.75000000  0.50000000  5.787037e-04 
  0.16666667  0.75000000  0.58333333  5.787037e-04 
  0.16666667  0.75000000  0.66666667  5.787037e-04 
  0.16666667  0.75000000  0.75000000  5.787037e-04 
  0.16666667  0.75000000  0.83333333  5.787037e-04 
  0.16666667  0.75000000  0.91666667  5.787037e-04 
  0.16666667  0.83333333  0.00000000  5.787037e-04 
  0.16666667  0.83333333  0.08333333  5.787037e-04 
  0.16666667  0.83333333  0.16666667  5.787037e-04 
  0.16666667  0.83333333  0.25000000  5.787037e-04 
  0.16666667  0.83333333  0.33333333  5.787037e-04 
  0.16666667  0.83333333  0.41666667  5.787037e-04 
  0.16666667  0.83333333  0.50000000  5.787037e-04 
  0.16666667  0.83333333  0.58333333  5.787037e-04 
  0.16666667  0.83333333  0.66666667  5.787037e-04 
  0.16666667  0.83333333  0.75000000  5.787037e-04 
  0.16666667  0.83333333  0.83333333  5.787037e-04 
  0.16666667  0.83333333  0.91666667  5.787037e-04 
  0.16666667  0.91666667  0.00000000  5.787037e-04 
  0.16666667  0.91666667  0.08333333  5.787037e-04 
  0.16666667  0.91666667  0.16666667  5.787037e-04 
  0.16666667  0.91666667  0.25000000  5.787037e-04 
  0.16666667  0.91666667  0.33333333  5.787037e-04 
  0.16666667  0.91666667  0.41666667  5.787037e-04 
  0.16666667  0.91666667  0.50000000  5.787037e-04 
  0.16666667  0.91666667  0.58333333  5.787037e-04 
  0.16666667  0.91666667  0.66666667  5.787037e-04 
  0.16666667  0.91666667  0.75000000  5.787037e-04 
  0.16666667  0.91666667  0.83333333  5.787037e-04 
  0.16666667  0.91666667  0.91666667  5.787037e-04 
  0.25000000  0.00000000  0.00000000  5.787037e-04 
  0.25000000  0.00000000  0.08333333  5.787037e-04 
  0.25000000  0.00000000  0.16666667  5.787037e-04 
  0.25000000  0.00000000  0.25000000  5.787037e-04 
  0.25000000  0.00000000  0.33333333  5.787037e-04 
  0.25000000  0.00000000  0.41666667  5.787037e-04 
  0.25000000  0.00000000  0.50000000  5.787037e-04 
  0.25000000  0.00000000  0.58333333  5.787037e-04 
  0.25000000  0.00000000  0.66666667  5.787037e-04 
  0.25000000  0.00000000  0.75000000  5.787037e-04 
  0.25000000  0.00000000  0.83333333  5.787037e-04 
  0.25000000  0.00000000  0.91666667  5.787037e-04 
  0.25000000  0.08333333  0.00000000  5.787037e-04 
  0.25000000  0.08333333  0.08333333  5.787037e-04 
  0.25000000  0.08333333  0.16666667  5.787037e-04 
  0.25000000  0.08333333  0.25000000  5.787037e-04 
  0.25000000  0.08333333  0.33333333  5.787037e-04 
  0.25000000  0.08333333  0.41666667  5.787037e-04 
  0.25000000  0.08333333  0.50000000  5.787037e-04 
  0.25000000  0.08333333  0.58333333  5.787037e-04 
  0.25000000  0.08333333  0.66666667  5.787037e-04 
  0.25000000  0.08333333  0.75000000  5.787037e-04 
  0.25000000  0.08333333  0.83333333  5.787037e-04 
  0.25000000  0.08333333  0.91666667  5.787037e-04 
  0.25000000  0.16666667  0.00000000  5.787037e-04 
  0.25000000  0.16666667  0.08333333  5.787037e-04 
  0.25000000  0.16666667  0.16666667  5.787037e-04 
  0.25000000  0.16666667  0.25000000  5.787037e-04 
  0.25000000  0.16666667  0.33333333  5.787037e-04 
  0.25000000  0.16666667  0.41666667  5.787037e-04 
  0.25000000  0.16666667  0.50000000  5.787037e-04 
  0.25000000  0.16666667  0.58333333  5.787037e-04 
  0.25000000  0.16666667  0.66666667  5.787037e-04 
  0.25000000  0.16666667  0.75000000  5.787037e-04 
  0.25000000  0.16666667  0.83333333  5.787037e-04 
  0.25000000  0.16666667  0.91666667  5.787037e-04 
  0.25000000  0.25000000  0.00000000  5.787037e-04 
  0.25000000  0.25000000  0.08333333  5.787037e-04 
  0.25000000  0.25000000  0.16666667  5.787037e-04 
  0.25000000  0.25000000  0.25000000  5.787037e-04 
  0.25000000  0.25000000  0.33333333  5.787037e-04 
  0.25000000  0.25000000  0.41666667  5.787037e-04 
  0.25000000  0.25000000  0.50000000  5.787037e-04 
  0.25000000  0.25000000  0.58333333  5.787037e-04 
  0.25000000  0.25000000  0.66666667  5.787037e-04 
  0.25000000  0.25000000  0.75000000  5.787037e-04 
  0.25000000  0.25000000  0.83333333  5.787037e-04 
  0.25000000  0.25000000  0.91666667  5.787037e-04 
  0.25000000  0.33333333  0.00000000  5.787037e-04 
  0.25000000  0.33333333  0.08333333  5.787037e-04 
  0.25000000  0.33333333  0.16666667  5.787037e-04 
  0.25000000  0.33333333  0.25000000  5.787037e-04 
  0.25000000  0.33333333  0.33333333  5.787037e-04 
  0.25000000  0.33333333  0.41666667  5.787037e-04 
  0.25000000  0.33333333  0.50000000  5.787037e-04 
  0.25000000  0.33333333  0.58333333  5.787037e-04 
  0.25000000  0.33333333  0.66666667  5.787037e-04 
  0.25000000  0.33333333  0.75000000  5.787037e-04 
  0.25000000  0.33333333  0.83333333  5.787037e-04 
  0.25000000  0.33333333  0.91666667  5.787037e-04 
  0.25000000  0.41666667  0.00000000  5.787037e-04 
  0.25000000  0.41666667  0.08333333  5.787037e-04 
  0.25000000  0.41666667  0.16666667  5.787037e-04 
  0.25000000  0.41666667  0.25000000  5.787037e-04 
  0.25000000  0.41666667  0.33333333  5.787037e-04 
  0.25000000  0.41666667  0.41666667  5.787037e-04 
  0.25000000  0.41666667  0.50000000  5.787037e-04 
  0.25000000  0.41666667  0.58333333  5.787037e-04 
  0.25000000  0.41666667  0.66666667  5.787037e-04 
  0.25000000  0.41666667  0.75000000  5.787037e-04 
  0.25000000  0.41666667  0.83333333  5.787037e-04 
  0.25000000  0.41666667  0.91666667  5.787037e-04 
  0.25000000  0.50000000  0.00000000  5.787037e-04 
  0.25000000  0.50000000  0.08333333  5.787037e-04 
  0.25000000  0.50000000  0.16666667  5.787037e-04 
  0.25000000  0.50000000  0.25000000  5.787037e-04 
  0.25000000  0.50000000  0.33333333  5.787037e-04 
  0.25000000  0.50000000  0.41666667  5.787037e-04 
  0.25000000  0.50000000  0.50000000  5.787037e-04 
  0.25000000  0.50000000  0.58333333  5.787037e-04 
  0.25000000  0.50000000  0.66666667  5.787037e-04 
  0.25000000  0.50000000  0.75000000  5.787037e-04 
  0.25000000  0.50000000  0.83333333  5.787037e-04 
  0.25000000  0.50000000  0.91666667  5.787037e-04 
  0.25000000  0.58333333  0.00000000  5.787037e-04 
  0.25000000  0.58333333  0.08333333  5.787037e-04 
  0.25000000  0.58333333  0.16666667  5.787037e-04 
  0.25000000  0.58333333  0.25000000  5.787037e-04 
  0.25000000  0.58333333  0.33333333  5.787037e-04 
  0.25000000  0.58333333  0.41666667  5.787037e-04 
  0.25000000  0.58333333  0.50000000  5.787037e-04 
  0.25000000  0.58333333  0.58333333  5.787037e-04 
  0.25000000  0.58333333  0.66666667  5.787037e-04 
  0.25000000  0.58333333  0.75000000  5.787037e-04 
  0.25000000  0.58333333  0.83333333  5.787037e-04 
  0.25000000  0.58333333  0.91666667  5.787037e-04 
  0.25000000  0.66666667  0.00000000  5.787037e-04 
  0.25000000  0.66666667  0.08333333  5.787037e-04 
  0.25000000  0.66666667  0.16666667  5.787037e-04 
  0.25000000  0.66666667  0.25000000  5.787037e-04 
  0.25000000  0.66666667  0.33333333  5.787037e-04 
  0.25000000  0.66666667  0.41666667  5.787037e-04 
  0.25000000  0.66666667  0.50000000  5.787037e-04 
  0.25000000  0.66666667  0.58333333  5.787037e-04 
  0.25000000  0.66666667  0.66666667  5.787037e-04 
  0.25000000  0.66666667  0.75000000  5.787037e-04 
  0.25000000  0.66666667  0.83333333  5.787037e-04 
  0.25000000  0.66666667  0.91666667  5.787037e-04 
  0.25000000  0.75000000  0.00000000  5.787037e-04 
  0.25000000  0.75000000  0.08333333  5.787037e-04 
  0.25000000  0.75000000  0.16666667  5.787037e-04 
  0.25000000  0.75000000  0.25000000  5.787037e-04 
  0.25000000  0.75000000  0.33333333  5.787037e-04 
  0.25000000  0.75000000  0.41666667  5.787037e-04 
  0.25000000  0.75000000  0.50000000  5.787037e-04 
  0.25000000  0.75000000  0.58333333  5.787037e-04 
  0.25000000  0.75000000  0.66666667  5.787037e-04 
  0.25000000  0.75000000  0.75000000  5.787037e-04 
  0.25000000  0.75000000  0.83333333  5.787037e-04 
  0.25000000  0.75000000  0.91666667  5.787037e-04 
  0.25000000  0.83333333  0.00000000  5.787037e-04 
  0.25000000  0.83333333  0.08333333  5.787037e-04 
  0.25000000  0.83333333  0.16666667  5.787037e-04 
  0.25000000  0.83333333  0.25000000  5.787037e-04 
  0.25000000  0.83333333  0.33333333  5.787037e-04 
  0.25000000  0.83333333  0.41666667  5.787037e-04 
  0.25000000  0.83333333  0.50000000  5.787037e-04 
  0.25000000  0.83333333  0.58333333  5.787037e-04 
  0.25000000  0.83333333  0.66666667  5.787037e-04 
  0.25000000  0.83333333  0.75000000  5.787037e-04 