&bands
    prefix  = 'TiSe2'
    filband = 'bands.dat'
    outdir = './tmp/'
 /
