&control
    calculation = 'bands',
    restart_mode = 'from_scratch'
    prefix = 'TiSe2',
    verbosity = 'high'
    outdir = './tmp/'
    pseudo_dir = './pseudo/'
    forc_conv_thr = 1.0d-8
    etot_conv_thr = 1.0d-8
 /
 &system
    ibrav =  0,
    nat =  3,
    ntyp = 2,
    nbnd = 40
    ecutwfc = 70
    ecutrho = 800
    degauss = 0.01
    smearing = 'marzari-vanderbilt'
    occupations = 'smearing'                                                               
 /
 &electrons
    mixing_beta = 0.7
    conv_thr = 1.0d-10
 /
ATOMIC_SPECIES
Ti 47.867  Ti.upf
Se 78.971  Se.upf

ATOMIC_POSITIONS (crystal)
Ti      -0.000000000  -0.000000000  -0.000000000
Se       0.333899797   0.666100202   0.250208591
Se       0.666100202   0.333899797  -0.250208591

K_POINTS crystal
        1000
        0.0000000000    0.0000000000    0.0000000000    1.0
        0.0029940120    0.0000000000    0.0000000000    1.0
        0.0059880240    0.0000000000    0.0000000000    1.0
        0.0089820359    0.0000000000    0.0000000000    1.0
        0.0119760479    0.0000000000    0.0000000000    1.0
        0.0149700599    0.0000000000    0.0000000000    1.0
        0.0179640719    0.0000000000    0.0000000000    1.0
        0.0209580838    0.0000000000    0.0000000000    1.0
        0.0239520958    0.0000000000    0.0000000000    1.0
        0.0269461078    0.0000000000    0.0000000000    1.0
        0.0299401198    0.0000000000    0.0000000000    1.0
        0.0329341317    0.0000000000    0.0000000000    1.0
        0.0359281437    0.0000000000    0.0000000000    1.0
        0.0389221557    0.0000000000    0.0000000000    1.0
        0.0419161677    0.0000000000    0.0000000000    1.0
        0.0449101796    0.0000000000    0.0000000000    1.0
        0.0479041916    0.0000000000    0.0000000000    1.0
        0.0508982036    0.0000000000    0.0000000000    1.0
        0.0538922156    0.0000000000    0.0000000000    1.0
        0.0568862275    0.0000000000    0.0000000000    1.0
        0.0598802395    0.0000000000    0.0000000000    1.0
        0.0628742515    0.0000000000    0.0000000000    1.0
        0.0658682635    0.0000000000    0.0000000000    1.0
        0.0688622754    0.0000000000    0.0000000000    1.0
        0.0718562874    0.0000000000    0.0000000000    1.0
        0.0748502994    0.0000000000    0.0000000000    1.0
        0.0778443114    0.0000000000    0.0000000000    1.0
        0.0808383234    0.0000000000    0.0000000000    1.0
        0.0838323353    0.0000000000    0.0000000000    1.0
        0.0868263473    0.0000000000    0.0000000000    1.0
        0.0898203593    0.0000000000    0.0000000000    1.0
        0.0928143713    0.0000000000    0.0000000000    1.0
        0.0958083832    0.0000000000    0.0000000000    1.0
        0.0988023952    0.0000000000    0.0000000000    1.0
        0.1017964072    0.0000000000    0.0000000000    1.0
        0.1047904192    0.0000000000    0.0000000000    1.0
        0.1077844311    0.0000000000    0.0000000000    1.0
        0.1107784431    0.0000000000    0.0000000000    1.0
        0.1137724551    0.0000000000    0.0000000000    1.0
        0.1167664671    0.0000000000    0.0000000000    1.0
        0.1197604790    0.0000000000    0.0000000000    1.0
        0.1227544910    0.0000000000    0.0000000000    1.0
        0.1257485030    0.0000000000    0.0000000000    1.0
        0.1287425150    0.0000000000    0.0000000000    1.0
        0.1317365269    0.0000000000    0.0000000000    1.0
        0.1347305389    0.0000000000    0.0000000000    1.0
        0.1377245509    0.0000000000    0.0000000000    1.0
        0.1407185629    0.0000000000    0.0000000000    1.0
        0.1437125749    0.0000000000    0.0000000000    1.0
        0.1467065868    0.0000000000    0.0000000000    1.0
        0.1497005988    0.0000000000    0.0000000000    1.0
        0.1526946108    0.0000000000    0.0000000000    1.0
        0.1556886228    0.0000000000    0.0000000000    1.0
        0.1586826347    0.0000000000    0.0000000000    1.0
        0.1616766467    0.0000000000    0.0000000000    1.0
        0.1646706587    0.0000000000    0.0000000000    1.0
        0.1676646707    0.0000000000    0.0000000000    1.0
        0.1706586826    0.0000000000    0.0000000000    1.0
        0.1736526946    0.0000000000    0.0000000000    1.0
        0.1766467066    0.0000000000    0.0000000000    1.0
        0.1796407186    0.0000000000    0.0000000000    1.0
        0.1826347305    0.0000000000    0.0000000000    1.0
        0.1856287425    0.0000000000    0.0000000000    1.0
        0.1886227545    0.0000000000    0.0000000000    1.0
        0.1916167665    0.0000000000    0.0000000000    1.0
        0.1946107784    0.0000000000    0.0000000000    1.0
        0.1976047904    0.0000000000    0.0000000000    1.0
        0.2005988024    0.0000000000    0.0000000000    1.0
        0.2035928144    0.0000000000    0.0000000000    1.0
        0.2065868263    0.0000000000    0.0000000000    1.0
        0.2095808383    0.0000000000    0.0000000000    1.0
        0.2125748503    0.0000000000    0.0000000000    1.0
        0.2155688623    0.0000000000    0.0000000000    1.0
        0.2185628743    0.0000000000    0.0000000000    1.0
        0.2215568862    0.0000000000    0.0000000000    1.0
        0.2245508982    0.0000000000    0.0000000000    1.0
        0.2275449102    0.0000000000    0.0000000000    1.0
        0.2305389222    0.0000000000    0.0000000000    1.0
        0.2335329341    0.0000000000    0.0000000000    1.0
        0.2365269461    0.0000000000    0.0000000000    1.0
        0.2395209581    0.0000000000    0.0000000000    1.0
        0.2425149701    0.0000000000    0.0000000000    1.0
        0.2455089820    0.0000000000    0.0000000000    1.0
        0.2485029940    0.0000000000    0.0000000000    1.0
        0.2514970060    0.0000000000    0.0000000000    1.0
        0.2544910180    0.0000000000    0.0000000000    1.0
        0.2574850299    0.0000000000    0.0000000000    1.0
        0.2604790419    0.0000000000    0.0000000000    1.0
        0.2634730539    0.0000000000    0.0000000000    1.0
        0.2664670659    0.0000000000    0.0000000000    1.0
        0.2694610778    0.0000000000    0.0000000000    1.0
        0.2724550898    0.0000000000    0.0000000000    1.0
        0.2754491018    0.0000000000    0.0000000000    1.0
        0.2784431138    0.0000000000    0.0000000000    1.0
        0.2814371257    0.0000000000    0.0000000000    1.0
        0.2844311377    0.0000000000    0.0000000000    1.0
        0.2874251497    0.0000000000    0.0000000000    1.0
        0.2904191617    0.0000000000    0.0000000000    1.0
        0.2934131737    0.0000000000    0.0000000000    1.0
        0.2964071856    0.0000000000    0.0000000000    1.0
        0.2994011976    0.0000000000    0.0000000000    1.0
        0.3023952096    0.0000000000    0.0000000000    1.0
        0.3053892216    0.0000000000    0.0000000000    1.0
        0.3083832335    0.0000000000    0.0000000000    1.0
        0.3113772455    0.0000000000    0.0000000000    1.0
        0.3143712575    0.0000000000    0.0000000000    1.0
        0.3173652695    0.0000000000    0.0000000000    1.0
        0.3203592814    0.0000000000    0.0000000000    1.0
        0.3233532934    0.0000000000    0.0000000000    1.0
        0.3263473054    0.0000000000    0.0000000000    1.0
        0.3293413174    0.0000000000    0.0000000000    1.0
        0.3323353293    0.0000000000    0.0000000000    1.0
        0.3353293413    0.0000000000    0.0000000000    1.0
        0.3383233533    0.0000000000    0.0000000000    1.0
        0.3413173653    0.0000000000    0.0000000000    1.0
        0.3443113772    0.0000000000    0.0000000000    1.0
        0.3473053892    0.0000000000    0.0000000000    1.0
        0.3502994012    0.0000000000    0.0000000000    1.0
        0.3532934132    0.0000000000    0.0000000000    1.0
        0.3562874251    0.0000000000    0.0000000000    1.0
        0.3592814371    0.0000000000    0.0000000000    1.0
        0.3622754491    0.0000000000    0.0000000000    1.0
        0.3652694611    0.0000000000    0.0000000000    1.0
        0.3682634731    0.0000000000    0.0000000000    1.0
        0.3712574850    0.0000000000    0.0000000000    1.0
        0.3742514970    0.0000000000    0.0000000000    1.0
        0.3772455090    0.0000000000    0.0000000000    1.0
        0.3802395210    0.0000000000    0.0000000000    1.0
        0.3832335329    0.0000000000    0.0000000000    1.0
        0.3862275449    0.0000000000    0.0000000000    1.0
        0.3892215569    0.0000000000    0.0000000000    1.0
        0.3922155689    0.0000000000    0.0000000000    1.0
        0.3952095808    0.0000000000    0.0000000000    1.0
        0.3982035928    0.0000000000    0.0000000000    1.0
        0.4011976048    0.0000000000    0.0000000000    1.0
        0.4041916168    0.0000000000    0.0000000000    1.0
        0.4071856287    0.0000000000    0.0000000000    1.0
        0.4101796407    0.0000000000    0.0000000000    1.0
        0.4131736527    0.0000000000    0.0000000000    1.0
        0.4161676647    0.0000000000    0.0000000000    1.0
        0.4191616766    0.0000000000    0.0000000000    1.0
        0.4221556886    0.0000000000    0.0000000000    1.0
        0.4251497006    0.0000000000    0.0000000000    1.0
        0.4281437126    0.0000000000    0.0000000000    1.0
        0.4311377246    0.0000000000    0.0000000000    1.0
        0.4341317365    0.0000000000    0.0000000000    1.0
        0.4371257485    0.0000000000    0.0000000000    1.0
        0.4401197605    0.0000000000    0.0000000000    1.0
        0.4431137725    0.0000000000    0.0000000000    1.0
        0.4461077844    0.0000000000    0.0000000000    1.0
        0.4491017964    0.0000000000    0.0000000000    1.0
        0.4520958084    0.0000000000    0.0000000000    1.0
        0.4550898204    0.0000000000    0.0000000000    1.0
        0.4580838323    0.0000000000    0.0000000000    1.0
        0.4610778443    0.0000000000    0.0000000000    1.0
        0.4640718563    0.0000000000    0.0000000000    1.0
        0.4670658683    0.0000000000    0.0000000000    1.0
        0.4700598802    0.0000000000    0.0000000000    1.0
        0.4730538922    0.0000000000    0.0000000000    1.0
        0.4760479042    0.0000000000    0.0000000000    1.0
        0.4790419162    0.0000000000    0.0000000000    1.0
        0.4820359281    0.0000000000    0.0000000000    1.0
        0.4850299401    0.0000000000    0.0000000000    1.0
        0.4880239521    0.0000000000    0.0000000000    1.0
        0.4910179641    0.0000000000    0.0000000000    1.0
        0.4940119760    0.0000000000    0.0000000000    1.0
        0.4970059880    0.0000000000    0.0000000000    1.0
        0.5000000000    0.0000000000    0.0000000000    1.0
        0.4982843299    0.0034389691    0.0000000000    1.0
        0.4965686598    0.0068779381    0.0000000000    1.0
        0.4948529897    0.0103169072    0.0000000000    1.0
        0.4931373196    0.0137558763    0.0000000000    1.0
        0.4914216495    0.0171948454    0.0000000000    1.0
        0.4897059794    0.0206338144    0.0000000000    1.0
        0.4879903093    0.0240727835    0.0000000000    1.0
        0.4862746392    0.0275117526    0.0000000000    1.0
        0.4845589691    0.0309507216    0.0000000000    1.0
        0.4828432990    0.0343896907    0.0000000000    1.0
        0.4811276289    0.0378286598    0.0000000000    1.0
        0.4794119588    0.0412676289    0.0000000000    1.0
        0.4776962887    0.0447065979    0.0000000000    1.0
        0.4759806186    0.0481455670    0.0000000000    1.0
        0.4742649485    0.0515845361    0.0000000000    1.0
        0.4725492784    0.0550235052    0.0000000000    1.0
        0.4708336082    0.0584624742    0.0000000000    1.0
        0.4691179381    0.0619014433    0.0000000000    1.0
        0.4674022680    0.0653404124    0.0000000000    1.0
        0.4656865979    0.0687793814    0.0000000000    1.0
        0.4639709278    0.0722183505    0.0000000000    1.0
        0.4622552577    0.0756573196    0.0000000000    1.0
        0.4605395876    0.0790962887    0.0000000000    1.0
        0.4588239175    0.0825352577    0.0000000000    1.0
        0.4571082474    0.0859742268    0.0000000000    1.0
        0.4553925773    0.0894131959    0.0000000000    1.0
        0.4536769072    0.0928521649    0.0000000000    1.0
        0.4519612371    0.0962911340    0.0000000000    1.0
        0.4502455670    0.0997301031    0.0000000000    1.0
        0.4485298969    0.1031690722    0.0000000000    1.0
        0.4468142268    0.1066080412    0.0000000000    1.0
        0.4450985567    0.1100470103    0.0000000000    1.0
        0.4433828866    0.1134859794    0.0000000000    1.0
        0.4416672165    0.1169249485    0.0000000000    1.0
        0.4399515464    0.1203639175    0.0000000000    1.0
        0.4382358763    0.1238028866    0.0000000000    1.0
        0.4365202062    0.1272418557    0.0000000000    1.0
        0.4348045361    0.1306808247    0.0000000000    1.0
        0.4330888660    0.1341197938    0.0000000000    1.0
        0.4313731959    0.1375587629    0.0000000000    1.0
        0.4296575258    0.1409977320    0.0000000000    1.0
        0.4279418557    0.1444367010    0.0000000000    1.0
        0.4262261856    0.1478756701    0.0000000000    1.0
        0.4245105155    0.1513146392    0.0000000000    1.0
        0.4227948454    0.1547536082    0.0000000000    1.0
        0.4210791753    0.1581925773    0.0000000000    1.0
        0.4193635052    0.1616315464    0.0000000000    1.0
        0.4176478351    0.1650705155    0.0000000000    1.0
        0.4159321649    0.1685094845    0.0000000000    1.0
        0.4142164948    0.1719484536    0.0000000000    1.0
        0.4125008247    0.1753874227    0.0000000000    1.0
        0.4107851546    0.1788263918    0.0000000000    1.0
        0.4090694845    0.1822653608    0.0000000000    1.0
        0.4073538144    0.1857043299    0.0000000000    1.0
        0.4056381443    0.1891432990    0.0000000000    1.0
        0.4039224742    0.1925822680    0.0000000000    1.0
        0.4022068041    0.1960212371    0.0000000000    1.0
        0.4004911340    0.1994602062    0.0000000000    1.0
        0.3987754639    0.2028991753    0.0000000000    1.0
        0.3970597938    0.2063381443    0.0000000000    1.0
        0.3953441237    0.2097771134    0.0000000000    1.0
        0.3936284536    0.2132160825    0.0000000000    1.0
        0.3919127835    0.2166550515    0.0000000000    1.0
        0.3901971134    0.2200940206    0.0000000000    1.0
        0.3884814433    0.2235329897    0.0000000000    1.0
        0.3867657732    0.2269719588    0.0000000000    1.0
        0.3850501031    0.2304109278    0.0000000000    1.0
        0.3833344330    0.2338498969    0.0000000000    1.0
        0.3816187629    0.2372888660    0.0000000000    1.0
        0.3799030928    0.2407278351    0.0000000000    1.0
        0.3781874227    0.2441668041    0.0000000000    1.0
        0.3764717526    0.2476057732    0.0000000000    1.0
        0.3747560825    0.2510447423    0.0000000000    1.0
        0.3730404124    0.2544837113    0.0000000000    1.0
        0.3713247423    0.2579226804    0.0000000000    1.0
        0.3696090722    0.2613616495    0.0000000000    1.0
        0.3678934021    0.2648006186    0.0000000000    1.0
        0.3661777320    0.2682395876    0.0000000000    1.0
        0.3644620619    0.2716785567    0.0000000000    1.0
        0.3627463918    0.2751175258    0.0000000000    1.0
        0.3610307216    0.2785564948    0.0000000000    1.0
        0.3593150515    0.2819954639    0.0000000000    1.0
        0.3575993814    0.2854344330    0.0000000000    1.0
        0.3558837113    0.2888734021    0.0000000000    1.0
        0.3541680412    0.2923123711    0.0000000000    1.0
        0.3524523711    0.2957513402    0.0000000000    1.0
        0.3507367010    0.2991903093    0.0000000000    1.0
        0.3490210309    0.3026292784    0.0000000000    1.0
        0.3473053608    0.3060682474    0.0000000000    1.0
        0.3455896907    0.3095072165    0.0000000000    1.0
        0.3438740206    0.3129461856    0.0000000000    1.0
        0.3421583505    0.3163851546    0.0000000000    1.0
        0.3404426804    0.3198241237    0.0000000000    1.0
        0.3387270103    0.3232630928    0.0000000000    1.0
        0.3370113402    0.3267020619    0.0000000000    1.0
        0.3352956701    0.3301410309    0.0000000000    1.0
        0.3335800000    0.3335800000    0.0000000000    1.0
        0.3318516062    0.3318516062    0.0000000000    1.0
        0.3301232124    0.3301232124    0.0000000000    1.0
        0.3283948187    0.3283948187    0.0000000000    1.0
        0.3266664249    0.3266664249    0.0000000000    1.0
        0.3249380311    0.3249380311    0.0000000000    1.0
        0.3232096373    0.3232096373    0.0000000000    1.0
        0.3214812435    0.3214812435    0.0000000000    1.0
        0.3197528497    0.3197528497    0.0000000000    1.0
        0.3180244560    0.3180244560    0.0000000000    1.0
        0.3162960622    0.3162960622    0.0000000000    1.0
        0.3145676684    0.3145676684    0.0000000000    1.0
        0.3128392746    0.3128392746    0.0000000000    1.0
        0.3111108808    0.3111108808    0.0000000000    1.0
        0.3093824870    0.3093824870    0.0000000000    1.0
        0.3076540933    0.3076540933    0.0000000000    1.0
        0.3059256995    0.3059256995    0.0000000000    1.0
        0.3041973057    0.3041973057    0.0000000000    1.0
        0.3024689119    0.3024689119    0.0000000000    1.0
        0.3007405181    0.3007405181    0.0000000000    1.0
        0.2990121244    0.2990121244    0.0000000000    1.0
        0.2972837306    0.2972837306    0.0000000000    1.0
        0.2955553368    0.2955553368    0.0000000000    1.0
        0.2938269430    0.2938269430    0.0000000000    1.0
        0.2920985492    0.2920985492    0.0000000000    1.0
        0.2903701554    0.2903701554    0.0000000000    1.0
        0.2886417617    0.2886417617    0.0000000000    1.0
        0.2869133679    0.2869133679    0.0000000000    1.0
        0.2851849741    0.2851849741    0.0000000000    1.0
        0.2834565803    0.2834565803    0.0000000000    1.0
        0.2817281865    0.2817281865    0.0000000000    1.0
        0.2799997927    0.2799997927    0.0000000000    1.0
        0.2782713990    0.2782713990    0.0000000000    1.0
        0.2765430052    0.2765430052    0.0000000000    1.0
        0.2748146114    0.2748146114    0.0000000000    1.0
        0.2730862176    0.2730862176    0.0000000000    1.0
        0.2713578238    0.2713578238    0.0000000000    1.0
        0.2696294301    0.2696294301    0.0000000000    1.0
        0.2679010363    0.2679010363    0.0000000000    1.0
        0.2661726425    0.2661726425    0.0000000000    1.0
        0.2644442487    0.2644442487    0.0000000000    1.0
        0.2627158549    0.2627158549    0.0000000000    1.0
        0.2609874611    0.2609874611    0.0000000000    1.0
        0.2592590674    0.2592590674    0.0000000000    1.0
        0.2575306736    0.2575306736    0.0000000000    1.0
        0.2558022798    0.2558022798    0.0000000000    1.0
        0.2540738860    0.2540738860    0.0000000000    1.0
        0.2523454922    0.2523454922    0.0000000000    1.0
        0.2506170984    0.2506170984    0.0000000000    1.0
        0.2488887047    0.2488887047    0.0000000000    1.0
        0.2471603109    0.2471603109    0.0000000000    1.0
        0.2454319171    0.2454319171    0.0000000000    1.0
        0.2437035233    0.2437035233    0.0000000000    1.0
        0.2419751295    0.2419751295    0.0000000000    1.0
        0.2402467358    0.2402467358    0.0000000000    1.0
        0.2385183420    0.2385183420    0.0000000000    1.0
        0.2367899482    0.2367899482    0.0000000000    1.0
        0.2350615544    0.2350615544    0.0000000000    1.0
        0.2333331606    0.2333331606    0.0000000000    1.0
        0.2316047668    0.2316047668    0.0000000000    1.0
        0.2298763731    0.2298763731    0.0000000000    1.0
        0.2281479793    0.2281479793    0.0000000000    1.0
        0.2264195855    0.2264195855    0.0000000000    1.0
        0.2246911917    0.2246911917    0.0000000000    1.0
        0.2229627979    0.2229627979    0.0000000000    1.0
        0.2212344041    0.2212344041    0.0000000000    1.0
        0.2195060104    0.2195060104    0.0000000000    1.0
        0.2177776166    0.2177776166    0.0000000000    1.0
        0.2160492228    0.2160492228    0.0000000000    1.0
        0.2143208290    0.2143208290    0.0000000000    1.0
        0.2125924352    0.2125924352    0.0000000000    1.0
        0.2108640415    0.2108640415    0.0000000000    1.0
        0.2091356477    0.2091356477    0.0000000000    1.0
        0.2074072539    0.2074072539    0.0000000000    1.0
        0.2056788601    0.2056788601    0.0000000000    1.0
        0.2039504663    0.2039504663    0.0000000000    1.0
        0.2022220725    0.2022220725    0.0000000000    1.0
        0.2004936788    0.2004936788    0.0000000000    1.0
        0.1987652850    0.1987652850    0.0000000000    1.0
        0.1970368912    0.1970368912    0.0000000000    1.0
        0.1953084974    0.1953084974    0.0000000000    1.0
        0.1935801036    0.1935801036    0.0000000000    1.0
        0.1918517098    0.1918517098    0.0000000000    1.0
        0.1901233161    0.1901233161    0.0000000000    1.0
        0.1883949223    0.1883949223    0.0000000000    1.0
        0.1866665285    0.1866665285    0.0000000000    1.0
        0.1849381347    0.1849381347    0.0000000000    1.0
        0.1832097409    0.1832097409    0.0000000000    1.0
        0.1814813472    0.1814813472    0.0000000000    1.0
        0.1797529534    0.1797529534    0.0000000000    1.0
        0.1780245596    0.1780245596    0.0000000000    1.0
        0.1762961658    0.1762961658    0.0000000000    1.0
        0.1745677720    0.1745677720    0.0000000000    1.0
        0.1728393782    0.1728393782    0.0000000000    1.0
        0.1711109845    0.1711109845    0.0000000000    1.0
        0.1693825907    0.1693825907    0.0000000000    1.0
        0.1676541969    0.1676541969    0.0000000000    1.0
        0.1659258031    0.1659258031    0.0000000000    1.0
        0.1641974093    0.1641974093    0.0000000000    1.0
        0.1624690155    0.1624690155    0.0000000000    1.0
        0.1607406218    0.1607406218    0.0000000000    1.0
        0.1590122280    0.1590122280    0.0000000000    1.0
        0.1572838342    0.1572838342    0.0000000000    1.0
        0.1555554404    0.1555554404    0.0000000000    1.0
        0.1538270466    0.1538270466    0.0000000000    1.0
        0.1520986528    0.1520986528    0.0000000000    1.0
        0.1503702591    0.1503702591    0.0000000000    1.0
        0.1486418653    0.1486418653    0.0000000000    1.0
        0.1469134715    0.1469134715    0.0000000000    1.0
        0.1451850777    0.1451850777    0.0000000000    1.0
        0.1434566839    0.1434566839    0.0000000000    1.0
        0.1417282902    0.1417282902    0.0000000000    1.0
        0.1399998964    0.1399998964    0.0000000000    1.0
        0.1382715026    0.1382715026    0.0000000000    1.0
        0.1365431088    0.1365431088    0.0000000000    1.0
        0.1348147150    0.1348147150    0.0000000000    1.0
        0.1330863212    0.1330863212    0.0000000000    1.0
        0.1313579275    0.1313579275    0.0000000000    1.0
        0.1296295337    0.1296295337    0.0000000000    1.0
        0.1279011399    0.1279011399    0.0000000000    1.0
        0.1261727461    0.1261727461    0.0000000000    1.0
        0.1244443523    0.1244443523    0.0000000000    1.0
        0.1227159585    0.1227159585    0.0000000000    1.0
        0.1209875648    0.1209875648    0.0000000000    1.0
        0.1192591710    0.1192591710    0.0000000000    1.0
        0.1175307772    0.1175307772    0.0000000000    1.0
        0.1158023834    0.1158023834    0.0000000000    1.0
        0.1140739896    0.1140739896    0.0000000000    1.0
        0.1123455959    0.1123455959    0.0000000000    1.0
        0.1106172021    0.1106172021    0.0000000000    1.0
        0.1088888083    0.1088888083    0.0000000000    1.0
        0.1071604145    0.1071604145    0.0000000000    1.0
        0.1054320207    0.1054320207    0.0000000000    1.0
        0.1037036269    0.1037036269    0.0000000000    1.0
        0.1019752332    0.1019752332    0.0000000000    1.0
        0.1002468394    0.1002468394    0.0000000000    1.0
        0.0985184456    0.0985184456    0.0000000000    1.0
        0.0967900518    0.0967900518    0.0000000000    1.0
        0.0950616580    0.0950616580    0.0000000000    1.0
        0.0933332642    0.0933332642    0.0000000000    1.0
        0.0916048705    0.0916048705    0.0000000000    1.0
        0.0898764767    0.0898764767    0.0000000000    1.0
        0.0881480829    0.0881480829    0.0000000000    1.0
        0.0864196891    0.0864196891    0.0000000000    1.0
        0.0846912953    0.0846912953    0.0000000000    1.0
        0.0829629016    0.0829629016    0.0000000000    1.0
        0.0812345078    0.0812345078    0.0000000000    1.0
        0.0795061140    0.0795061140    0.0000000000    1.0
        0.0777777202    0.0777777202    0.0000000000    1.0
        0.0760493264    0.0760493264    0.0000000000    1.0
        0.0743209326    0.0743209326    0.0000000000    1.0
        0.0725925389    0.0725925389    0.0000000000    1.0
        0.0708641451    0.0708641451    0.0000000000    1.0
        0.0691357513    0.0691357513    0.0000000000    1.0
        0.0674073575    0.0674073575    0.0000000000    1.0
        0.0656789637    0.0656789637    0.0000000000    1.0
        0.0639505699    0.0639505699    0.0000000000    1.0
        0.0622221762    0.0622221762    0.0000000000    1.0
        0.0604937824    0.0604937824    0.0000000000    1.0
        0.0587653886    0.0587653886    0.0000000000    1.0
        0.0570369948    0.0570369948    0.0000000000    1.0
        0.0553086010    0.0553086010    0.0000000000    1.0
        0.0535802073    0.0535802073    0.0000000000    1.0
        0.0518518135    0.0518518135    0.0000000000    1.0
        0.0501234197    0.0501234197    0.0000000000    1.0
        0.0483950259    0.0483950259    0.0000000000    1.0
        0.0466666321    0.0466666321    0.0000000000    1.0
        0.0449382383    0.0449382383    0.0000000000    1.0
        0.0432098446    0.0432098446    0.0000000000    1.0
        0.0414814508    0.0414814508    0.0000000000    1.0
        0.0397530570    0.0397530570    0.0000000000    1.0
        0.0380246632    0.0380246632    0.0000000000    1.0
        0.0362962694    0.0362962694    0.0000000000    1.0
        0.0345678756    0.0345678756    0.0000000000    1.0
        0.0328394819    0.0328394819    0.0000000000    1.0
        0.0311110881    0.0311110881    0.0000000000    1.0
        0.0293826943    0.0293826943    0.0000000000    1.0
        0.0276543005    0.0276543005    0.0000000000    1.0
        0.0259259067    0.0259259067    0.0000000000    1.0
        0.0241975130    0.0241975130    0.0000000000    1.0
        0.0224691192    0.0224691192    0.0000000000    1.0
        0.0207407254    0.0207407254    0.0000000000    1.0
        0.0190123316    0.0190123316    0.0000000000    1.0
        0.0172839378    0.0172839378    0.0000000000    1.0
        0.0155555440    0.0155555440    0.0000000000    1.0
        0.0138271503    0.0138271503    0.0000000000    1.0
        0.0120987565    0.0120987565    0.0000000000    1.0
        0.0103703627    0.0103703627    0.0000000000    1.0
        0.0086419689    0.0086419689    0.0000000000    1.0
        0.0069135751    0.0069135751    0.0000000000    1.0
        0.0051851813    0.0051851813    0.0000000000    1.0
        0.0034567876    0.0034567876    0.0000000000    1.0
        0.0017283938    0.0017283938    0.0000000000    1.0
        0.0000000000    0.0000000000    0.0000000000    1.0
        0.0000000000    0.0000000000    0.0058823529    1.0
        0.0000000000    0.0000000000    0.0117647059    1.0
        0.0000000000    0.0000000000    0.0176470588    1.0
        0.0000000000    0.0000000000    0.0235294118    1.0
        0.0000000000    0.0000000000    0.0294117647    1.0
        0.0000000000    0.0000000000    0.0352941176    1.0
        0.0000000000    0.0000000000    0.0411764706    1.0
        0.0000000000    0.0000000000    0.0470588235    1.0
        0.0000000000    0.0000000000    0.0529411765    1.0
        0.0000000000    0.0000000000    0.0588235294    1.0
        0.0000000000    0.0000000000    0.0647058824    1.0
        0.0000000000    0.0000000000    0.0705882353    1.0
        0.0000000000    0.0000000000    0.0764705882    1.0
        0.0000000000    0.0000000000    0.0823529412    1.0
        0.0000000000    0.0000000000    0.0882352941    1.0
        0.0000000000    0.0000000000    0.0941176471    1.0
        0.0000000000    0.0000000000    0.1000000000    1.0
        0.0000000000    0.0000000000    0.1058823529    1.0
        0.0000000000    0.0000000000    0.1117647059    1.0
        0.0000000000    0.0000000000    0.1176470588    1.0
        0.0000000000    0.0000000000    0.1235294118    1.0
        0.0000000000    0.0000000000    0.1294117647    1.0
        0.0000000000    0.0000000000    0.1352941176    1.0
        0.0000000000    0.0000000000    0.1411764706    1.0
        0.0000000000    0.0000000000    0.1470588235    1.0
        0.0000000000    0.0000000000    0.1529411765    1.0
        0.0000000000    0.0000000000    0.1588235294    1.0
        0.0000000000    0.0000000000    0.1647058824    1.0