&control   
    calculation = 'relax',
    restart_mode = 'from_scratch'
    prefix = 'TiSe2',
    outdir = './tmp/'
    pseudo_dir = './pseudo/'
    forc_conv_thr = 1.0d-8
    etot_conv_thr = 1.0d-8
    tstress = .true.
    tprnfor = .true.
 /
 &system
    ibrav =  0,
    nat =  3,
    ntyp = 2,
    ecutwfc = 70
    ecutrho = 800
    degauss = 0.01
    smearing = 'marzari-vanderbilt'
    occupations = 'smearing'

 /
 &electrons
    mixing_beta = 0.7
    conv_thr = 1.0d-10
 /
 &IONS
  ion_dynamics = 'bfgs',
 /
ATOMIC_SPECIES
Ti 47.867  Ti.pz-spn-rrkjus_psl.1.0.0.UPF
Se 78.971  Se.pz-n-rrkjus_psl.0.2.UPF

ATOMIC_POSITIONS (crystal)
Ti      -0.000000000  -0.000000000  -0.000000000
Se       0.333333333   0.666666666   0.255030000
Se       0.666666666   0.333333333  -0.255030000

K_POINTS (automatic)
16 16 16 0 0 0

CELL_PARAMETERS (angstrom)
   3.419864000  -0.913994500   0.027244000
  -0.913994500   3.419864000  -0.027244000
  -0.046231554   0.046231554   6.006779129

                                                   
