 &inputpp
    prefix  = 'TiSe2'
    outdir = './tmp/'
    filplot = 'xTiSe2.charge.dat'
    plot_num= 0
 /
 &plot
    nfile = 1
    filepp(1) = 'xTiSe2.charge.dat'
    weight(1) = 1.0
    iflag = 3
    output_format = 5
    fileout = 'xTiSe2.rho.xsf'
   ! e1(1) =1.0, e1(2)=1.0, e1(3) = 0.0,
   ! e2(1) =0.0, e2(2)=0.0, e2(3) = 1.0,
   ! nx=141, ny=100
 /
